(set-option :auto-config true)
(set-option :produce-unsat-cores false)
(set-option :smt.mbqi.max_iterations 10000000)
(set-option :smt.relevancy 2)
(reset)
(set-option :auto-config true)
(set-option :produce-unsat-cores false)
(set-option :smt.mbqi.max_iterations 10000000)
(set-option :smt.relevancy 2)
(declare-fun c0 () Bool)
(define-fun e1 () Bool (not c0))
(assert e1)
(define-fun e2 () (_ BitVec 18) (_ bv0 18))
(define-fun e3 () (_ BitVec 18) (_ bv1 18))
(define-fun e4 () (_ BitVec 18) (ite c0 e2 e3))
(minimize e4)
(check-sat)
(get-model)
(reset)
(set-option :auto-config true)
(set-option :produce-unsat-cores false)
(set-option :smt.mbqi.max_iterations 10000000)
(set-option :smt.relevancy 2)
